NAME: tsp10_29
COMMENT: 10-tsp problem (Padberg/Rinaldi)
TYPE: TSP
DIMENSION: 10
EDGE_WEIGHT_TYPE : EUC_2D
NODE_COORD_SECTION
1 21 16
2 19 2
3 33 31
4 20 4
5 17 23
6 8 22
7 19 4
8 7 3
9 10 9
10 25 18
